#######################################
### Exact MIP solver for the HHCRSP ###
#######################################
-- Instance file: new-instances/HHCRSP_25_5_5_1.0_C_RC.txt
-- Max threads: 4
-- Time limit: 999999 seconds
-- Use initial solution: No
Trivial flow violations prevented generating 805 variables.
Model exported.
Version identifier: 20.1.0.0 | 2020-11-10 | 9bedb6d68
CPXPARAM_Threads                                 4
CPXPARAM_TimeLimit                               999999
Tried aggregator 1 time.
LP Presolve eliminated 402 rows and 152 columns.
Reduced LP has 1250 rows, 1228 columns, and 8097 nonzeros.
Presolve time = 0.00 sec. (2.65 ticks)
Symmetry aggregator did 802 additional substitutions.

Iteration log . . .
Iteration:     1   Dual objective     =             0.000000
Iteration:    95   Dual objective     =            77.027700

Dual crossover.
  Dual:  Fixing 30 variables.
       29 DMoves:  Infeasibility  9.87728508e-16  Objective  7.70277000e+01
        0 DMoves:  Infeasibility  6.54661601e-16  Objective  7.70277000e+01
  Dual:  Pushed 2, exchanged 28.
  Primal:  Fixing 11 variables.
       10 PMoves:  Infeasibility  1.11022302e-16  Objective  7.70277000e+01
        0 PMoves:  Infeasibility  0.00000000e+00  Objective  7.70277000e+01
  Primal:  Pushed 1, exchanged 10.

Solution status from MIP model:
-- Processing time: 0.008 sec.
-- Memory used: 14.9473 MB
-- Best bound: inf
-- Obj value: 77.0277
-- Gap: inf%
-- Total distance: 231.083
-- Total tardiness: 0
-- Largest tardiness: 0
